c ---- [ banner ] ------------------------------------------------------------
c
c Kissat SAT Solver
c 
c Copyright (c) 2021-2023 Armin Biere University of Freiburg
c Copyright (c) 2019-2021 Armin Biere Johannes Kepler University Linz
c 
c Version 3.1.1 unknown
c gcc (Ubuntu 9.4.0-1ubuntu1~20.04.2) 9.4.0 -W -Wall -O3 -DNDEBUG
c Mon Feb 26 18:18:52 CET 2024 Linux OptiPlex-7080 5.15.0-88-generic x86_64
c
c ---- [ parsing ] -----------------------------------------------------------
c
c opened and reading DIMACS file:
c
c   /home/oliveras/SAT-comp-2023//26114429758a203d651f4df87c94de4c-sgen1-unsat-97-100.cnf.mis-72.debugged.cnf
c
c parsed 'p cnf 7009 13996' header
c closing input after reading 203405 bytes (199 KB)
c finished parsing after 0.01 seconds
c
c ---- [ options ] -----------------------------------------------------------
c
c --seed=1                         (different from default '0')
c
c ---- [ solving ] -----------------------------------------------------------
c
c  seconds switched conflicts  irredundant variables
c         MB reductions redundant     trail    remaining
c          level restarts    binary      glue
c
c *  0.01  3 0 0 0  0   0   0 7108 6675 0% 0 6938 99%
c {  0.01  3 0 0 0  0   0   0 7108 6675 0% 0 6938 99%
c i  0.01  3 2626 0 0  0   3   0 7109 6675 99% 0 6935 99%
c i  0.01  3 2623 0 0  0   8   0 7112 6675 99% 0 6920 99%
c i  0.01  3 2622 0 0  0  10   0 7113 6675 99% 0 6914 99%
c i  0.01  3 2621 0 0  0  11   0 7113 6675 99% 0 6906 99%
c i  0.01  3 2619 0 0  0  15   0 7115 6675 99% 0 6897 98%
c i  0.01  3 2618 0 0  0  17   0 7115 6675 99% 0 6881 98%
c i  0.01  3 2616 0 0  0  20   2 7115 6675 99% 1 6879 98%
c i  0.01  3 2615 0 0  0  21   2 7115 6675 99% 1 6878 98%
c i  0.01  3 2615 0 0  0  22   2 7115 6675 99% 1 6876 98%
c i  0.01  3 2615 0 0  0  23   2 7115 6675 99% 1 6874 98%
c i  0.01  3 2614 0 0  0  24   2 7115 6675 99% 1 6872 98%
c i  0.01  3 2613 0 0  0  28   2 7118 6675 99% 1 6866 98%
c i  0.01  3 2612 0 0  0  30   2 7119 6675 99% 1 6854 98%
c i  0.01  3 2610 0 0  0  34   2 7122 6675 99% 1 6853 98%
c i  0.01  3 2609 0 0  0  35   2 7122 6675 99% 1 6846 98%
c i  0.01  3 2608 0 0  0  38   2 7123 6675 99% 1 6824 97%
c i  0.01  3 2607 0 0  0  40   2 7124 6675 99% 1 6813 97%
c i  0.01  3 2493 0 0  1  48   4 7129 6675 95% 1 6178 88%
c
c  seconds    switched conflicts  irredundant variables
c         MB   reductions redundant       trail    remaining
c           level  restarts     binary       glue
c
c i  0.01  3 2443 0 0  1  49   4 7129 6675 93% 1 6166 88%
c i  0.01  3 2394 0 0  1  50   4 7129 6675 91% 1 6165 88%
c i  0.01  3 2347 0 0  1  51   4 7129 6675 90% 1 6163 88%
c i  0.01  3 2217 0 0  1  54   4 7131 6675 86% 1 6153 88%
c i  0.01  3 2177 0 0  1  55   4 7131 6675 85% 1 6151 88%
c i  0.01  3 2138 0 0  1  56   4 7131 6675 83% 1 6149 88%
c i  0.01  3 1836 0 0  5  67   6 7139 6675 82% 1 6148 88%
c i  0.01  3 1809 0 0  5  68   6 7139 6675 80% 1 6146 88%
c i  0.01  3 1783 0 0  6  69   6 7139 6675 79% 1 6145 88%
c i  0.01  3 1758 0 0  7  70   6 7139 6675 78% 1 6144 88%
c i  0.01  3 1686 0 0 10  73   6 7141 6675 76% 1 6143 88%
c i  0.01  3 1520 0 0 16  81   6 7148 6675 70% 1 6025 86%
c i  0.02  3 1332 0 0 25  93   9 7156 6675 68% 1 6024 86%
c i  0.02  3 1318 0 0 26  94   9 7156 6675 67% 1 6009 86%
c i  0.02  3 1291 0 0 28  96  10 7156 6675 66% 1 6008 86%
c i  0.02  3 1149 0 0 38 108  14 7163 6675 63% 1 6002 86%
c i  0.10  3 237 0 0 260 621 339 7349 6675 79% 3 5913 84%
c -  0.14  3 161 0 1 387 1000 563 6449 5568 82% 3 5913 84%
c }  0.14  3 161 1 1 387 1000 563 6449 5568 82% 3 5913 84%
c [  0.15  3 0 1 1 387 1000 563 6449 5568 0% 0 5913 84%
c
c  seconds  switched conflicts    irredundant variables
c         MB reductions   redundant       trail    remaining
c          level restarts       binary       glue
c
c B  0.15  3 87 1 1 387 1001 563 6450 5568 99% 1 5913 84%
c d  0.16  3 1315 1 1 387 1714 1226 6482 5568 98% 5 5912 84%
c d  0.16  4 1315 1 1 387 1714 1226 6482 5568 98% 5 5911 84%
c b  0.16  4 1315 1 1 387 1714 1226 6482 5568 98% 5 5656 81%
c u  0.17  4 1315 1 1 387 1714 1213 6495 5568 98% 5 5656 81%
c v  0.17  4 1315 1 1 387 1714 1213 6495 5568 98% 5 5656 81%
c w  0.18  4 1315 1 1 387 1714 1213 6749 5298 98% 5 5562 79%
c =  0.19  4 1315 1 1 387 1714 1213 6749 5094 98% 5 5185 74%
c d  0.19  4 1315 1 1 387 1714 1213 6842 4932 98% 5 5184 74%
c d  0.19  4 1315 1 1 387 1714 1213 6843 4931 98% 5 5182 74%
c t  0.19  4 1315 1 1 387 1714 1213 6747 4931 98% 5 5107 73%
c b  0.19  4 1315 1 1 387 1714 1213 6747 4931 98% 5 5049 72%
c i  0.19  4 1315 1 1 387 1714 1213 6747 4931 98% 5 5049 72%
c i  0.19  4 1127 1 1 387 1838 1314 6762 4931 97% 5 5011 71%
c -  0.20  4 954 1 2 387 2001 1212 5449 4736 96% 6 5011 71%
c W  0.20  4 951 1 2 387 2004 1215 5449 4736 96% 6 5011 71%
c i  0.25  4 419 1 2 389 3335 2469 5477 4736 95% 11 5009 71%
c d  0.25  4 414 1 2 389 3369 2494 5480 4731 95% 11 5007 71%
c b  0.25  4 414 1 2 389 3369 2494 5480 4731 95% 11 4849 69%
c u  0.26  4 414 1 2 389 3369 2480 5494 4731 95% 11 4849 69%
c
c  seconds   switched conflicts     irredundant  variables
c         MB  reductions   redundant        trail     remaining
c           level restarts        binary        glue
c
c v  0.27  4 414 1 2 389 3369 2480 5494 4731 95% 11 4849 69%
c w  0.27  4 414 1 2 389 3369 2480 5618 4594 95% 11 4751 68%
c =  0.28  4 414 1 2 389 3369 2480 5618 4506 95% 11 4478 64%
c d  0.28  4 414 1 2 389 3369 2480 5717 4238 95% 11 4477 64%
c t  0.28  4 414 1 2 389 3369 2480 5677 4238 95% 11 4402 63%
c b  0.28  4 414 1 2 389 3369 2480 5677 4238 95% 11 4351 62%
c i  0.28  4 414 1 2 389 3369 2480 5677 4238 95% 11 4351 62%
c -  0.29  4 406 1 3 389 3415 1448 4743 4121 94% 11 4351 62%
c I  0.32  4 304 1 3 389 4264 2243 4769 4121 92% 11 4351 62%
c -  0.35  4 241 1 4 389 5147 1701 4791 4121 91% 11 4351 62%
c d  0.40  4 178 1 4 391 6691 3168 4824 4121 90% 10 4349 62%
c d  0.40  4 178 1 4 391 6691 3168 4826 4119 90% 10 4347 62%
c b  0.40  4 178 1 4 391 6691 3168 4826 4119 90% 10 4251 61%
c u  0.40  4 178 1 4 391 6691 3168 4826 4119 90% 10 4251 61%
c v  0.41  4 178 1 4 391 6691 3168 4826 4119 90% 10 4251 61%
c =  0.42  4 178 1 4 391 6691 3168 4922 4021 90% 10 4226 60%
c d  0.42  4 178 1 4 391 6691 3168 4946 3997 90% 10 4224 60%
c d  0.42  4 178 1 4 391 6691 3168 4948 3995 90% 10 4221 60%
c t  0.42  4 178 1 4 391 6691 3168 4906 3995 90% 10 4173 60%
c b  0.42  4 178 1 4 391 6691 3168 4906 3995 90% 10 4125 59%
c
c  seconds   switched conflicts     irredundant  variables
c         MB  reductions   redundant        trail     remaining
c           level restarts        binary        glue
c
c ]  0.43  4 174 2 4 391 6828 3304 4906 3995 90% 10 4125 59%
c {  0.43  4 161 2 4 391 6828 3304 4906 3995 82% 3 4125 59%
c i  0.43  4 159 2 4 392 6837 3308 4910 3995 81% 3 4091 58%
c i  0.43  4 159 2 4 392 6838 3308 4910 3995 81% 3 4063 58%
c i  0.43  4 159 2 4 392 6839 3308 4910 3995 81% 3 4056 58%
c i  0.44  4 153 2 4 413 6893 3346 4920 3995 80% 3 4052 58%
c i  0.44  4 149 2 4 420 6919 3360 4929 3995 79% 3 3933 56%
c i  0.44  4 147 2 4 420 6937 3367 4938 3995 79% 3 3873 55%
c i  0.44  4 147 2 4 420 6938 3367 4938 3995 79% 3 3817 54%
c i  0.44  4 145 2 4 422 6955 3380 4941 3995 79% 3 3800 54%
c -  0.45  4 127 2 5 482 7147 2097 4286 3565 77% 3 3800 54%
c i  0.46  4 127 2 5 484 7153 2098 4290 3565 77% 3 3748 53%
c i  0.46  4 110 2 5 505 7382 2280 4328 3565 77% 3 3552 51%
c i  0.46  4 110 2 5 505 7383 2280 4328 3565 77% 3 3535 50%
c i  0.46  4 110 2 5 505 7384 2280 4328 3565 77% 3 3502 50%
c i  0.46  4 110 2 5 505 7386 2281 4328 3565 77% 3 3501 50%
c i  0.46  4 110 2 5 505 7387 2281 4328 3565 77% 3 3468 49%
c i  0.46  4 110 2 5 505 7388 2281 4328 3565 77% 3 3461 49%
c i  0.46  4 110 2 5 505 7390 2281 4329 3565 77% 3 3458 49%
c i  0.46  4 110 2 5 505 7391 2281 4329 3565 77% 3 3439 49%
c
c  seconds   switched conflicts     irredundant variables
c         MB  reductions   redundant        trail    remaining
c           level restarts        binary       glue
c
c i  0.47  4 110 2 5 505 7392 2281 4329 3565 77% 3 3421 49%
c }  0.49  4 89 3 5 649 7828 2675 4348 3565 77% 3 3421 49%
c [  0.49  4 174 3 5 649 7828 2675 4348 3565 90% 10 3421 49%
c B  0.50  4 169 3 5 649 8036 2878 4351 3565 90% 10 3421 49%
c e  0.53  4 157 3 5 649 8569 3373 1304 1571 91% 10 623 9%
c 2  0.53  4 157 3 5 649 8569 3373 1302 1571 91% 10 623 9%
c s  0.53  4 157 3 5 649 8569 3373 1312 1099 91% 10 623 9%
c e  0.54  4 157 3 5 649 8569 3373 1296 1107 91% 10 612 9%
c ^  0.54  4 157 3 5 649 8569 3373 1296 1107 91% 10 612 9%
c -  0.55  4 142 3 6 650 9384 1913 932 1103 89% 11 612 9%
c u  0.60  4 111 3 6 651 11731 4212 951 1101 86% 12 612 9%
c v  0.61  4 111 3 6 651 11731 4210 953 1101 86% 12 612 9%
c w  0.61  4 111 3 6 651 11731 4243 974 1046 86% 12 610 9%
c t  0.62  4 111 3 6 651 11731 4243 911 1042 86% 12 610 9%
c b  0.62  4 111 3 6 651 11731 4243 911 1042 86% 12 606 9%
c i  0.62  4 111 3 6 651 11731 4243 911 1042 86% 12 606 9%
c -  0.62  4 110 3 7 651 11834 2314 894 1042 86% 12 606 9%
c W  0.65  4 95 3 7 653 13567 4001 899 1038 85% 12 606 9%
c ]  0.65  4 92 4 7 653 14078 4505 899 1038 85% 12 606 9%
c {  0.65  4 89 4 7 653 14078 4505 899 1038 77% 3 606 9%
c
c  seconds  switched  conflicts    irredundant variables
c         MB reductions    redundant      trail  remaining
c          level restarts        binary      glue
c
c s  0.66  3 83 4 7 734 14289 4699 905 996 77% 3 606 9%
c e  0.67  3 83 4 7 734 14289 4699 806 1165 77% 3 518 7%
c 2  0.67  4 83 4 7 734 14289 4699 805 1165 77% 3 518 7%
c s  0.67  4 83 4 7 734 14289 4699 808 1103 77% 3 518 7%
c e  0.67  4 83 4 7 734 14289 4699 803 1109 77% 3 516 7%
c ^  0.67  4 83 4 7 734 14289 4699 803 1109 77% 3 516 7%
c -  0.67  3 79 4 8 807 14479 2073 807 1106 77% 4 516 7%
c }  0.72  3 55 5 8 1374 16431 3895 851 1084 78% 5 516 7%
c [  0.72  4 92 5 8 1374 16431 3895 851 1084 85% 12 516 7%
c b  0.72  4 91 5 8 1374 16557 4021 851 1084 85% 12 514 7%
c u  0.72  4 91 5 8 1374 16557 4015 857 1084 85% 12 514 7%
c v  0.73  4 91 5 8 1374 16557 4006 866 1084 85% 12 514 7%
c w  0.74  4 91 5 8 1374 16557 4029 917 995 85% 12 505 7%
c t  0.74  4 91 5 8 1374 16557 4028 839 987 85% 12 505 7%
c b  0.74  4 91 5 8 1374 16557 4028 839 987 85% 12 503 7%
c i  0.74  4 91 5 8 1374 16557 4028 839 987 85% 12 503 7%
c -  0.75  4 87 5 9 1374 17308 3477 807 987 84% 12 503 7%
c i  0.76  4 83 5 9 1375 17985 4133 809 987 84% 12 502 7%
c -  0.79  4 73 5 10 1376 20308 4110 805 987 82% 12 502 7%
c O  0.80  4 70 5 10 1377 21096 4819 805 987 82% 11 502 7%
c
c  seconds  switched    conflicts    irredundant variables
c         MB  reductions     redundant      trail   remaining
c          level   restarts        binary       glue
c
c ]  0.81  4 68 6 10 1377 21739 5428 814 985 82% 12 502 7%
c {  0.81  4 55 6 10 1377 21739 5428 814 985 78% 5 502 7%
c i  0.81  4 55 6 10 1378 21746 5431 817 985 78% 5 501 7%
c i  0.81  4 55 6 10 1381 21763 5437 824 984 78% 5 496 7%
c b  0.83  4 47 6 10 1418 22661 6304 839 961 77% 5 493 7%
c u  0.84  4 47 6 10 1418 22661 6294 849 961 77% 5 493 7%
c v  0.85  4 47 6 10 1418 22661 6294 849 961 77% 5 493 7%
c w  0.85  4 47 6 10 1418 22661 6306 877 919 77% 5 493 7%
c t  0.85  4 47 6 10 1418 22661 6306 846 919 77% 5 493 7%
c b  0.85  4 47 6 10 1418 22661 6306 846 919 77% 5 491 7%
c -  0.87  4 42 6 11 1438 23470 5013 825 916 76% 5 491 7%
c i  0.91  4 36 6 11 1709 24910 6422 834 916 75% 5 490 7%
c }  0.92  4 32 7 11 1709 25809 7296 837 916 74% 5 490 7%
c [  0.92  4 68 7 11 1709 25809 7296 837 916 82% 12 490 7%
c s  0.93  4 67 7 11 1709 25977 7452 839 901 82% 11 490 7%
c e  0.93  4 67 7 11 1709 25977 7452 782 972 82% 11 462 7%
c 2  0.93  4 67 7 11 1709 25977 7452 781 972 82% 11 462 7%
c s  0.93  4 67 7 11 1709 25977 7452 782 954 82% 11 462 7%
c e  0.93  4 67 7 11 1709 25977 7452 778 954 82% 11 460 7%
c ^  0.93  4 67 7 11 1709 25977 7452 778 954 82% 11 460 7%
c
c  seconds  switched    conflicts    irredundant variables
c         MB  reductions     redundant      trail   remaining
c          level   restarts        binary       glue
c
c -  0.95  4 65 7 12 1709 26788 6234 782 954 81% 11 460 7%
c i  0.96  4 62 7 12 1710 27742 7163 790 953 80% 11 443 6%
c b  1.00  4 56 7 12 1712 30103 7531 799 908 78% 11 437 6%
c u  1.01  4 56 7 12 1712 30103 7519 804 908 78% 11 437 6%
c v  1.01  4 56 7 12 1712 30103 7484 805 908 78% 11 437 6%
c w  1.02  4 56 7 12 1712 30103 7500 816 860 78% 11 432 6%
c t  1.02  4 56 7 12 1712 30103 7479 803 852 78% 11 432 6%
c i  1.02  4 56 7 12 1712 30103 7479 803 852 78% 11 432 6%
c -  1.03  4 56 7 13 1712 30254 5093 723 852 78% 11 432 6%
c B  1.03  4 55 7 13 1712 30857 5687 724 852 78% 11 432 6%
c ]  1.05  4 52 8 13 1714 32230 7026 724 852 78% 11 432 6%
c {  1.05  4 32 8 13 1714 32230 7026 724 852 74% 5 432 6%
c -  1.10  4 30 8 14 2116 33862 5551 732 851 74% 5 432 6%
c i  1.15  4 26 8 14 2542 36661 8244 746 851 74% 5 430 6%
c -  1.18  4 26 8 15 2796 37608 5691 742 851 73% 6 430 6%
c }  1.19  4 25 9 15 2939 38389 6454 742 851 74% 6 430 6%
c [  1.19  4 52 9 15 2939 38389 6454 742 851 78% 11 430 6%
c u  1.21  4 52 9 15 2939 38840 6884 746 847 78% 11 430 6%
c v  1.21  4 52 9 15 2939 38840 6880 750 847 78% 11 430 6%
c w  1.22  4 52 9 15 2939 38840 6882 757 837 78% 11 429 6%
c
c  seconds  switched    conflicts    irredundant variables
c         MB  reductions     redundant      trail   remaining
c          level   restarts        binary       glue
c
c t  1.22  4 52 9 15 2939 38840 6881 740 837 78% 11 429 6%
c i  1.22  4 52 9 15 2939 38840 6881 740 837 78% 11 429 6%
c -  1.27  4 48 9 16 2941 41481 6394 739 837 77% 11 429 6%
c W  1.29  4 46 9 16 2942 43080 7899 740 836 77% 11 429 6%
c s  1.31  4 45 9 16 2943 44317 9117 740 828 76% 11 429 6%
c e  1.31  4 45 9 16 2943 44317 9117 655 994 76% 11 352 5%
c 2  1.31  4 45 9 16 2943 44317 9117 632 994 76% 11 352 5%
c s  1.31  4 45 9 16 2943 44317 9117 634 879 76% 11 352 5%
c e  1.32  4 45 9 16 2943 44317 9117 628 889 76% 11 348 5%
c ^  1.32  4 45 9 16 2943 44317 9117 628 889 76% 11 348 5%
c -  1.34  4 43 9 17 2944 45481 5518 628 889 76% 11 348 5%
c ]  1.38  4 40 10 17 2945 48504 8526 629 889 75% 11 348 5%
c {  1.38  4 25 10 17 2945 48504 8526 629 889 74% 6 348 5%
c u  1.40  4 25 10 17 3052 48921 8921 630 889 73% 6 348 5%
c v  1.41  4 25 10 17 3052 48921 8921 630 889 73% 6 348 5%
c w  1.41  5 25 10 17 3052 48921 8937 644 859 73% 6 348 5%
c t  1.41  5 25 10 17 3052 48921 8937 615 859 73% 6 348 5%
c -  1.43  5 24 10 18 3192 49604 5723 615 859 73% 6 348 5%
c i  1.44  5 24 10 18 3271 50040 6141 620 859 73% 6 347 5%
c i  1.49  4 23 10 18 3636 52685 8665 635 859 73% 6 346 5%
c
c  seconds   switched    conflicts    irredundant variables
c         MB   reductions     redundant      trail  remaining
c          level    restarts        binary      glue
c
c -  1.52  4 22 10 19 3825 53849 7144 615 859 73% 6 346 5%
c i  1.55  4 22 10 19 4063 55446 8649 631 859 72% 6 341 5%
c }  1.59  4 21 11 19 4403 57131 10258 632 859 72% 6 341 5%
c [  1.59  5 40 11 19 4403 57131 10258 632 859 75% 11 341 5%
c I  1.60  5 39 11 19 4403 57985 11098 633 859 75% 11 341 5%
c -  1.61  5 39 11 20 4404 58208 8677 616 859 75% 11 341 5%
c b  1.64  5 37 11 20 4405 60277 10723 621 834 75% 11 340 5%
c u  1.65  5 37 11 20 4405 60277 10721 623 834 75% 11 340 5%
c v  1.66  4 37 11 20 4405 60277 10716 628 834 75% 11 340 5%
c w  1.66  4 37 11 20 4405 60277 10743 652 782 75% 11 340 5%
c t  1.67  4 37 11 20 4405 60277 10743 623 782 75% 11 340 5%
c b  1.67  4 37 11 20 4405 60277 10743 623 782 75% 11 339 5%
c -  1.71  5 35 11 21 4407 62684 8462 615 782 74% 11 339 5%
c -  1.79  5 33 11 22 4409 67267 7512 617 782 73% 11 339 5%
c s  1.82  5 31 11 22 4409 69467 9698 617 773 73% 11 339 5%
c e  1.82  5 31 11 22 4409 69467 9698 521 1123 73% 11 272 4%
c 2  1.82  5 31 11 22 4409 69467 9698 513 1123 73% 11 272 4%
c s  1.82  5 31 11 22 4409 69467 9698 513 972 73% 11 272 4%
c e  1.83  5 31 11 22 4409 69467 9698 502 1016 73% 11 267 4%
c ^  1.83  5 31 11 22 4409 69467 9698 502 1016 73% 11 267 4%
c
c  seconds   switched    conflicts    irredundant  variables
c         MB   reductions     redundant       trail   remaining
c          level    restarts        binary        glue
c
c ]  1.83  5 31 12 22 4410 70038 8565 502 1016 73% 11 267 4%
c {  1.83  5 21 12 22 4410 70038 8565 502 1016 72% 6 267 4%
c i  1.86  4 20 12 22 4433 71892 10381 513 1016 72% 6 265 4%
c -  1.86  4 20 12 23 4447 71959 5854 491 993 72% 6 265 4%
c u  1.89  4 20 12 23 4613 72966 6840 496 993 72% 6 265 4%
c v  1.89  4 20 12 23 4613 72966 6838 498 993 72% 6 265 4%
c w  1.90  5 20 12 23 4613 72966 6893 533 903 72% 6 265 4%
c t  1.90  5 20 12 23 4613 72966 6893 478 903 72% 6 265 4%
c -  1.97  5 19 12 24 5059 76755 8105 479 903 71% 6 265 4%
c }  2.08  4 18 13 24 5803 81517 12776 481 903 70% 7 265 4%
c [  2.08  5 31 13 24 5803 81517 12776 481 903 73% 11 265 4%
c B  2.08  5 31 13 24 5803 81517 12776 481 903 73% 11 265 4%
c -  2.09  5 31 13 25 5803 81655 10074 481 903 73% 11 265 4%
c -  2.17  5 29 13 26 5806 86656 9538 481 903 72% 10 265 4%
c u  2.19  5 29 13 26 5807 87106 9962 503 903 72% 10 265 4%
c v  2.20  4 29 13 26 5807 87106 9941 524 903 72% 10 265 4%
c w  2.20  5 29 13 26 5807 87106 9949 545 874 72% 10 265 4%
c t  2.21  5 29 13 26 5807 87106 9949 481 874 72% 10 265 4%
c -  2.30  5 27 13 27 5809 91755 8225 482 874 71% 10 265 4%
c ]  2.34  5 26 14 27 5810 94023 10466 482 874 71% 10 265 4%
c
c  seconds   switched    conflicts     irredundant variables
c         MB   reductions      redundant      trail  remaining
c          level    restarts         binary      glue
c
c {  2.34  5 18 14 27 5810 94023 10466 482 874 70% 7 265 4%
c -  2.42  4 18 14 28 6447 96951 9008 483 873 70% 7 265 4%
c -  2.54  5 18 14 29 7137 102243 10874 485 873 69% 7 265 4%
c u  2.56  4 17 14 29 7233 102694 11281 517 873 69% 7 265 4%
c v  2.57  5 17 14 29 7233 102694 11280 518 873 69% 7 265 4%
c w  2.58  5 17 14 29 7233 102694 11289 523 859 69% 7 265 4%
c t  2.58  5 17 14 29 7233 102694 11289 485 859 69% 7 265 4%
c s  2.58  5 17 14 29 7249 102763 11353 485 854 69% 7 265 4%
c e  2.59  5 17 14 29 7249 102763 11353 405 1390 69% 7 215 3%
c 2  2.59  5 17 14 29 7249 102763 11353 403 1390 69% 7 215 3%
c s  2.59  5 17 14 29 7249 102763 11353 403 1155 69% 7 215 3%
c e  2.59  5 17 14 29 7249 102763 11353 392 1217 69% 7 207 3%
c !  2.59  5 17 14 29 7249 102763 11353 392 1217 69% 7 207 3%
c -  2.71  5 17 14 30 7952 107630 11030 393 1217 69% 7 207 3%
c }  2.74  5 17 15 30 8118 108738 12111 393 1217 69% 7 207 3%
c [  2.74  5 26 15 30 8118 108738 12111 393 1217 71% 10 207 3%
c W  2.74  5 26 15 30 8118 108738 12111 393 1217 71% 10 207 3%
c -  2.82  5 25 15 31 8121 113109 10584 394 1217 71% 10 207 3%
c -  2.93  5 24 15 32 8124 118676 9589 394 1217 70% 10 207 3%
c u  2.96  5 24 15 32 8124 119807 10700 394 1217 70% 10 207 3%
c
c  seconds   switched    conflicts      irredundant  variables
c         MB   reductions       redundant       trail   remaining
c          level    restarts          binary        glue
c
c v  2.97  5 24 15 32 8124 119807 10700 394 1217 70% 10 207 3%
c w  2.98  5 24 15 32 8124 119807 10713 401 1197 70% 10 207 3%
c t  2.98  5 24 15 32 8124 119807 10713 388 1197 70% 10 207 3%
c -  3.06  5 23 15 33 8127 124334 9218 388 1197 70% 10 207 3%
c ]  3.14  5 22 16 33 8130 128593 13402 388 1197 69% 10 207 3%
c {  3.14  5 17 16 33 8130 128593 13402 388 1197 69% 7 207 3%
c -  3.18  5 17 16 34 8422 130079 9554 388 1197 69% 7 207 3%
c -  3.31  5 16 16 35 8983 135910 11718 390 1197 68% 7 207 3%
c u  3.39  5 17 16 35 9277 139359 14969 394 1196 68% 7 207 3%
c v  3.41  5 17 16 35 9277 139359 14969 394 1196 68% 7 207 3%
c w  3.42  5 17 16 35 9277 139359 14990 404 1165 68% 7 207 3%
c t  3.42  5 17 16 35 9277 139359 14990 393 1165 68% 7 207 3%
c -  3.49  5 16 16 36 9641 141826 13691 393 1165 68% 7 207 3%
c s  3.58  5 16 16 36 10105 145495 17263 393 1102 68% 7 207 3%
c e  3.59  4 16 16 36 10105 145495 17263 388 1142 68% 7 204 3%
c s  3.59  4 16 16 36 10105 145495 17263 388 1108 68% 7 204 3%
c e  3.59  4 16 16 36 10105 145495 17263 384 1157 68% 7 201 3%
c i  3.62  5 16 16 36 10125 146886 18462 391 1157 68% 7 198 3%
c }  3.62  5 16 17 36 10129 146931 18507 391 1157 68% 7 198 3%
c [  3.62  5 22 17 36 10129 146931 18507 391 1157 69% 10 198 3%
c
c  seconds   switched     conflicts      irredundant  variables
c         MB   reductions        redundant       trail   remaining
c          level    restarts           binary        glue
c
c O  3.62  5 22 17 36 10129 146931 18507 391 1157 69% 10 198 3%
c -  3.65  5 22 17 37 10129 147826 12558 375 1157 69% 10 198 3%
c -  3.78  5 21 17 38 10134 153908 11571 375 1157 69% 10 198 3%
c -  3.89  5 20 17 39 10136 160073 11300 375 1157 68% 10 198 3%
c u  3.91  5 20 17 39 10136 160494 11705 378 1149 68% 10 198 3%
c v  3.93  5 20 17 39 10136 160494 11704 379 1149 68% 10 198 3%
c w  3.94  5 20 17 39 10136 160494 11722 409 1101 68% 10 198 3%
c t  3.94  5 20 17 39 10136 160494 11722 377 1101 68% 10 198 3%
c -  4.05  5 20 17 40 10141 166317 11244 377 1101 68% 10 198 3%
c ]  4.11  5 19 18 40 10142 169578 14492 377 1101 68% 10 198 3%
c {  4.11  5 16 18 40 10142 169578 14492 377 1101 68% 7 198 3%
c i  4.13  5 16 18 40 10171 170443 15289 389 1101 68% 7 195 3%
c -  4.19  5 16 18 41 10382 172642 11159 379 1101 68% 7 195 3%
c i  4.23  5 16 18 41 10554 174495 12920 387 1101 68% 7 194 3%
c -  4.37  5 16 18 42 11280 179045 12415 379 1101 67% 7 194 3%
c i  4.45  5 16 18 42 11670 181841 15114 386 1101 67% 8 191 3%
c u  4.50  5 16 18 42 11770 183002 14466 409 1054 67% 8 191 3%
c v  4.51  5 16 18 42 11770 183002 14447 428 1054 67% 8 191 3%
c w  4.52  5 16 18 42 11770 183002 14480 446 998 67% 8 190 3%
c t  4.52  5 16 18 42 11770 183002 14397 398 998 67% 8 190 3%
c
c  seconds   switched     conflicts      irredundant variables
c         MB   reductions        redundant      trail  remaining
c          level    restarts           binary      glue
c
c i  4.52  5 16 18 42 11770 183002 14397 398 998 67% 8 190 3%
c i  4.58  5 15 18 42 11877 185116 16426 403 998 67% 8 188 3%
c -  4.60  5 15 18 43 11903 185525 11718 354 998 67% 8 188 3%
c }  4.78  5 15 19 43 12725 191924 17899 359 998 66% 8 188 3%
c [  4.78  5 19 19 43 12725 191924 17899 359 998 68% 10 188 3%
c B  4.78  5 19 19 43 12725 191924 17899 359 998 68% 10 188 3%
c -  4.79  5 19 19 44 12725 192082 12983 359 998 68% 10 188 3%
c s  4.89  5 19 19 44 12729 197148 17976 359 963 67% 10 188 3%
c e  4.90  5 19 19 44 12729 197148 17976 326 987 67% 10 181 3%
c s  4.90  5 19 19 44 12729 197148 17976 326 981 67% 10 181 3%
c -  4.94  5 19 19 45 12730 198716 11880 326 981 67% 10 181 3%
c -  5.08  5 18 19 46 12732 205425 11108 326 981 67% 10 181 3%
c u  5.12  5 18 19 46 12734 206837 12494 327 981 67% 10 181 3%
c v  5.13  5 18 19 46 12734 206837 12490 331 981 67% 10 181 3%
c w  5.14  5 18 19 46 12734 206837 12499 338 965 67% 10 181 3%
c t  5.15  5 18 19 46 12734 206837 12499 327 965 67% 10 181 3%
c -  5.26  5 18 19 47 12737 212207 11459 327 965 66% 10 181 3%
c -  5.40  5 17 19 48 12739 219062 12054 327 965 66% 10 181 3%
c W  5.49  5 17 19 48 12739 223374 16330 327 965 65% 10 181 3%
c ]  5.50  5 17 20 48 12739 224079 17029 327 965 65% 10 181 3%
c
c  seconds   switched     conflicts      irredundant variables
c         MB   reductions        redundant      trail  remaining
c          level    restarts           binary      glue
c
c {  5.50  5 15 20 48 12739 224079 17029 327 965 66% 8 181 3%
c -  5.57  5 15 20 49 12967 225990 13256 327 965 66% 8 181 3%
c u  5.73  5 15 20 49 13356 231826 18956 328 965 66% 8 181 3%
c v  5.74  6 15 20 49 13356 231826 18954 330 965 66% 8 181 3%
c w  5.76  5 15 20 49 13356 231826 18955 336 958 66% 8 181 3%
c t  5.76  6 15 20 49 13356 231826 18955 328 958 66% 8 181 3%
c -  5.80  5 15 20 50 13505 232990 14853 329 958 66% 8 181 3%
c i  5.96  5 14 20 50 13736 239284 21030 339 958 65% 8 180 3%
c -  5.99  5 14 20 51 13807 240061 16055 327 958 65% 8 180 3%
c -  6.17  6 14 20 52 14257 247202 16985 328 958 65% 8 180 3%
c }  6.25  5 14 21 52 14415 250818 20517 329 958 65% 8 180 3%
c [  6.25  6 17 21 52 14415 250818 20517 329 958 65% 10 180 3%
c -  6.34  6 16 21 53 14417 254415 17191 330 958 65% 10 180 3%
c s  6.37  5 16 21 53 14419 256084 18842 330 907 65% 10 180 3%
c e  6.37  6 16 21 53 14419 256084 18842 318 936 65% 10 176 3%
c s  6.37  6 16 21 53 14419 256084 18842 318 935 65% 10 176 3%
c b  6.42  6 16 21 53 14420 258460 18006 321 932 65% 10 174 2%
c u  6.43  5 16 21 53 14420 258460 17941 356 932 65% 10 174 2%
c v  6.46  5 16 21 53 14420 258460 17928 369 932 65% 10 174 2%
c w  6.47  5 16 21 53 14420 258460 17949 377 892 65% 10 174 2%
c
c  seconds   switched     conflicts      irredundant variables
c         MB   reductions        redundant      trail   remaining
c          level    restarts           binary       glue
c
c t  6.47  6 16 21 53 14420 258460 17949 322 892 65% 10 174 2%
c I  6.48  6 16 21 53 14420 258725 18201 322 892 65% 10 174 2%
c -  6.55  6 16 21 54 14421 261696 15677 306 892 65% 9 174 2%
c i  6.72  6 15 21 54 14425 268235 22016 312 892 64% 9 172 2%
c -  6.74  5 15 21 55 14426 269045 11688 300 892 64% 9 172 2%
c -  6.89  5 15 21 56 14429 276464 13082 302 892 64% 9 172 2%
c i  6.97  5 14 21 56 14429 280316 16887 311 892 64% 9 164 2%
c ]  7.00  5 14 22 56 14429 281393 17944 312 892 64% 9 164 2%
c {  7.00  6 14 22 56 14429 281393 17944 312 892 65% 8 164 2%
c i  7.01  6 14 22 56 14429 282167 18703 318 892 65% 8 160 2%
c i  7.03  6 14 22 56 14429 283087 19606 328 892 65% 8 149 2%
c i  7.04  6 14 22 56 14429 283281 19781 334 892 65% 8 148 2%
c i  7.04  6 14 22 56 14429 283378 19872 338 892 65% 8 118 2%
c i  7.04  6 14 22 56 14429 283384 19873 340 892 65% 8 117 2%
c i  7.04  6 14 22 56 14429 283390 19875 341 892 65% 8 70 1%
c }  7.04  6 14 22 56 14429 283392 19875 341 892 65% 8 54 1%
c 0  7.04  6 14 22 56 14429 283392 19875 341 892 65% 8 54 1%
c
c ---- [ result ] ------------------------------------------------------------
c
s UNSATISFIABLE
c
c ---- [ profiling ] ---------------------------------------------------------
c
c           6.35   90.13 %  search
c           3.26   46.31 %  stable
c           3.08   43.81 %  focused
c           0.69    9.75 %  simplify
c           0.61    8.71 %  probe
c           0.52    7.42 %  vivify
c           0.11    1.49 %  reduce
c           0.06    0.88 %  eliminate
c           0.05    0.65 %  substitute
c           0.03    0.39 %  sweep
c           0.01    0.18 %  transitive
c           0.01    0.15 %  walking
c           0.01    0.11 %  parse
c           0.01    0.10 %  subsume
c           0.00    0.07 %  backbone
c           0.00    0.00 %  warmup
c =============================================
c           7.04  100.00 %  total
c
c ---- [ statistics ] --------------------------------------------------------
c
c chronological:                           33                0 %  conflicts
c conflicts:                           283392            40239.71 per second
c decisions:                           591576                2.09 per conflict
c eliminated:                            3157               45 %  variables
c jumped_reasons:                     5205600               29 %  propagations
c propagations:                      18210871          2585818    per second
c queue_decisions:                     360846               61 %  decision
c random_decisions:                     32978                6 %  decision
c random_sequences:                       118             2402    interval
c reductions:                              56             5061    interval
c rephased:                                15            18893    interval
c restarts:                             14429               19.64 interval
c score_decisions:                     197752               33 %  decision
c strengthened:                           303                0 %  checks
c subsumed:                              1273                1 %  checks
c switched:                                22            12881    interval
c vivified:                              4261               14 %  checks
c vivify_checks:                        30393             1520    per vivify
c vivify_units:                            20                0 %  variables
c walk_improved:                            5              100 %  walks
c walks:                                    5            56678    interval
c
c ---- [ resources ] ---------------------------------------------------------
c
c maximum-resident-set-size:          6668288 bytes          6 MB
c process-time:                             7s               7.04 seconds
c
c ---- [ shutting down ] -----------------------------------------------------
c
c exit 20
